proyfinal/src/viki/013/andrea/andrea-localstore/experimentInOfficeAgust.take6/worker_6/de777677-65b5-4369-8f41-198df1eb6dc4.als.cnf.out
Reading from standard input... Use '--help' for help.
============================[ Problem Statistics ]=============================
|                                                                             |
|  Number of variables:         87638                                         |
|  Number of clauses:          161767                                         |
|  Parse time:                   0.04 s                                       |
|                                                                             |
============================[ Search Statistics ]==============================
| Conflicts |          ORIGINAL         |          LEARNT          | Progress |
|           |    Vars  Clauses Literals |    Limit  Clauses Lit/Cl |          |
===============================================================================
|       100 |   62046   103949   259774 |    38114      100      8 | 29.202 % |
|       250 |   62046   103949   259774 |    41926      250     30 | 29.202 % |
|       475 |   62046   103949   259774 |    46118      475     46 | 29.202 % |
|       812 |   62046   103949   259774 |    50730      812     56 | 29.202 % |
|      1318 |   62046   103949   259774 |    55803     1318     60 | 29.202 % |
|      2077 |   62046   103949   259774 |    61383     2077     67 | 29.202 % |
|      3216 |   47138    61452   154994 |    67522     3154     62 | 46.213 % |
|      4924 |   46435    58886   148945 |    74274     4538     52 | 47.015 % |
|      7486 |   46421    58653   148417 |    81702     7095     45 | 47.031 % |
===============================================================================
restarts              : 34
conflicts             : 8391           (8961 /sec)
decisions             : 30077          (0.00 % random) (32122 /sec)
propagations          : 11722042       (12518988 /sec)
conflict literals     : 354478         (43.37 % deleted)
Memory used           : 22.79 MB
CPU time              : 0.936341 s

UNSATISFIABLE
